Version identifier: 20.1.0.0 | 2020-11-10 | 9bedb6d68
Tried aggregator 2 times.
MIP Presolve eliminated 1858 rows and 908 columns.
MIP Presolve modified 4752 coefficients.
Aggregator did 196 substitutions.
Reduced MIP has 2755 rows, 2211 columns, and 9035 nonzeros.
Reduced MIP has 432 binaries, 1779 generals, 0 SOSs, and 0 indicators.
Presolve time = 0.03 sec. (11.06 ticks)
Probing fixed 56 vars, tightened 660 bounds.
Probing time = 0.00 sec. (1.99 ticks)
Tried aggregator 2 times.
Detecting symmetries...
MIP Presolve eliminated 1092 rows and 84 columns.
MIP Presolve modified 231 coefficients.
Aggregator did 22 substitutions.
Reduced MIP has 1641 rows, 2105 columns, and 5357 nonzeros.
Reduced MIP has 602 binaries, 1503 generals, 0 SOSs, and 0 indicators.
Presolve time = 0.02 sec. (7.62 ticks)
Probing time = 0.00 sec. (0.46 ticks)
Clique table members: 21.
MIP emphasis: balance optimality and feasibility.
MIP search method: dynamic search.
Parallel mode: deterministic, using up to 24 threads.
Root relaxation solution time = 0.02 sec. (6.20 ticks)

        Nodes                                         Cuts/
   Node  Left     Objective  IInf  Best Integer    Best Bound    ItCnt     Gap

*     0+    0                          110.0000        0.0000           100.00%
      0     0        0.0000    83      110.0000        0.0000      563  100.00%
      0     0        0.0000    95      110.0000     Cuts: 180      755  100.00%
*     0+    0                           21.0000        0.0000           100.00%
      0     0        0.0000    67       21.0000     Cuts: 174     1326  100.00%
      0     0        0.0693   637       21.0000     Cuts: 129     1764   99.67%
      0     0        0.2072   602       21.0000     Cuts: 166     2150   99.01%
      0     0        0.4158   560       21.0000     Cuts: 168     2449   98.02%
      0     0        0.4284   607       21.0000     Cuts: 156     2668   97.96%
*     0+    0                           18.0000        0.4284            97.62%
      0     0        0.5146   445       18.0000     Cuts: 137     2812   61.11%
      0     0        0.5146   599       18.0000      Cuts: 94     2959   61.11%
      0     0        cutoff             18.0000       18.0000     2959    0.00%
Elapsed time = 1.18 sec. (346.51 ticks, tree = 0.01 MB, solutions = 3)

Cover cuts applied:  1
Implied bound cuts applied:  52
Flow cuts applied:  17
Mixed integer rounding cuts applied:  21
Zero-half cuts applied:  97
Lift and project cuts applied:  8
Gomory fractional cuts applied:  12

Root node processing (before b&c):
  Real time             =    1.18 sec. (346.68 ticks)
Parallel b&c, 24 threads:
  Real time             =    0.00 sec. (0.00 ticks)
  Sync time (average)   =    0.00 sec.
  Wait time (average)   =    0.00 sec.
                          ------------
Total (root+branch&cut) =    1.18 sec. (346.68 ticks)

Solution status = Optimal
Solution LB = 18
Solution UB = 18
Runtime = 1.19088 seconds
	Command being timed: "/home/min/git_repos/CS598MEBProject/CNT-ILP/build/cnt -s 2 ./output/k8_n30/simC_c1_k8_n30_u2_s2_del04.input-right.cnp"
	User time (seconds): 16.62
	System time (seconds): 0.15
	Percent of CPU this job got: 1344%
	Elapsed (wall clock) time (h:mm:ss or m:ss): 0:01.24
	Average shared text size (kbytes): 0
	Average unshared data size (kbytes): 0
	Average stack size (kbytes): 0
	Average total size (kbytes): 0
	Maximum resident set size (kbytes): 146764
	Average resident set size (kbytes): 0
	Major (requiring I/O) page faults: 0
	Minor (reclaiming a frame) page faults: 45303
	Voluntary context switches: 5012
	Involuntary context switches: 2237
	Swaps: 0
	File system inputs: 0
	File system outputs: 16
	Socket messages sent: 0
	Socket messages received: 0
	Signals delivered: 0
	Page size (bytes): 4096
	Exit status: 0
